[ma. 03. april 18:07:51 +0200 2023]  ./input/alternate_g_np/50-5-4.gcc
Set parameter Username
Academic license - for non-commercial use only - expires 2024-03-28
Set parameter TimeLimit to value 1800
Set parameter PreCrush to value 1
Set parameter LazyConstraints to value 1
Gurobi Optimizer version 10.0.1 build v10.0.1rc0 (linux64)

CPU model: AMD Ryzen 9 5950X 16-Core Processor, instruction set [SSE2|AVX|AVX2]
Thread count: 16 physical cores, 32 logical processors, using up to 32 threads

Optimize a model with 56 rows, 350 columns and 950 nonzeros
Model fingerprint: 0x7726b9b4
Variable types: 0 continuous, 350 integer (350 binary)
Coefficient statistics:
  Matrix range     [1e+00, 1e+00]
  Objective range  [2e+00, 1e+02]
  Bounds range     [1e+00, 1e+00]
  RHS range        [1e+00, 1e+00]
Presolve time: 0.00s
Presolved: 56 rows, 350 columns, 950 nonzeros
Variable types: 0 continuous, 350 integer (350 binary)

Root relaxation: objective 2.514000e+03, 6 iterations, 0.00 seconds (0.00 work units)

    Nodes    |    Current Node    |     Objective Bounds      |     Work
 Expl Unexpl |  Obj  Depth IntInf | Incumbent    BestBd   Gap | It/Node Time

     0     0 2514.00000    0    6          - 2514.00000      -     -    0s
     0     0 2514.00000    0    -          - 2514.00000      -     -    0s
     0     0 2514.00000    0    -          - 2514.00000      -     -    0s
     0     0 2514.00000    0    4          - 2514.00000      -     -    0s
     0     0 2514.00000    0    -          - 2514.00000      -     -    0s
     0     0 2514.00000    0    8          - 2514.00000      -     -    0s
     0     0 2514.00000    0    8          - 2514.00000      -     -    0s
     0     2 2514.00000    0    8          - 2514.00000      -     -    0s
 21187 11187 infeasible   63               - 2514.00000      -  26.6    5s
*21532  1968              30    2514.0000000 2514.00000  0.00%  27.2    5s

Cutting planes:
  User: 134
  Lazy constraints: 2103

Explored 21788 nodes (596453 simplex iterations) in 5.14 seconds (1.83 work units)
Thread count was 32 (of 32 available processors)

Solution count 1: 2514 

Optimal solution found (tolerance 1.00e-04)
Best objective 2.514000000000e+03, best bound 2.514000000000e+03, gap 0.0000%

User-callback calls 44439, time in user-callback 1.94 sec
Minimal separator inequalities added: 136465
Indegree inequalities added: 0
Passed solution check
[ma. 03. april 18:07:56 +0200 2023]  done

